ID_groupA,ID_groupB,ID_groupC
176,4914,693
3443,209,4015
3443,209,109
3443,209,693
3443,209,693
3443,209,693
3443,209,693
3443,209,693
1169,209,693
3443,209,4015
3443,209,693
176,4914,693
3443,209,693
3443,209,693
3443,4914,4015
3443,4914,109
3443,4914,693
3443,4914,693
3443,4914,4015
3443,4914,4015
176,4914,693
3443,4914,4015
3443,4914,4015
3443,4914,4015
176,232,293
3443,4914,693
176,4914,693
4005,4187,4015
3443,209,4015
3443,209,4015
3443,209,4015
3443,209,4015
3443,209,4015
3443,209,4015
3443,209,4015
3443,209,4015
3443,232,4015
3443,209,4015
3443,209,693
3443,4187,109
3443,4187,109
3443,4187,109
4005,4187,109
3443,209,109
3443,209,109
4005,4187,109
3443,209,109
3443,232,109
3443,4187,109
3443,209,109
3443,209,4015
3443,209,4015
3443,209,4015
3443,209,693
3443,209,4137
3443,209,4015
3443,209,693
3443,232,4015
3443,209,4015
3443,209,693
3443,209,4015
3443,209,4015
3443,209,693
3443,209,4137
3443,209,4015
3443,209,4015
3443,232,4015
3443,209,693
3443,209,693
3443,209,4015
3443,209,693
3443,209,4137
3443,209,4015
3443,209,4015
3443,232,4015
3443,209,4015
3443,209,693
3443,209,4015
3443,209,4015
4005,4187,109
3443,209,4015
3443,232,4015
3443,209,4015
3443,209,693
1169,209,4137
3443,209,4015
3443,209,693
176,4914,693
3443,209,693
3443,209,693
3443,209,4015
1169,209,4137
3443,232,4015
3443,209,4137
1169,209,693
3443,209,4015
3443,232,4015
3443,209,4015
3443,209,4015
3443,232,4015
3443,209,4015
3443,209,693
3443,232,4015
176,4914,693
3443,209,693
